c A SAT instance generated from a 3-CNF formula that had 14 clauses and 7 variables
p cnf 7 14
3 -5 1 0
7 4 6 0
5 1 -7 0
1 7 -6 0
6 -5 -1 0
-4 3 -7 0
7 4 -5 0
6 2 5 0
-5 -7 -1 0
-2 4 -1 0
5 -1 -4 0
-7 1 4 0
-1 3 -7 0
5 -2 -1 0
